% seed = 0

mint = 34;
% maxt = 210;

nActs = 92;
dur = [0,1,4,1,2,1,2,7,3,3,2,1,2,5,3,1,3,2,3,1,1,2,3,3,3,2,1,4,1,4,1,3,3,3,3,1,1,3,1,2,2,3,2,2,2,2,1,4,4,3,1,6,2,3,2,1,2,1,1,1,2,4,3,1,3,2,1,1,4,4,3,3,3,3,5,1,4,1,1,2,2,3,2,1,3,2,2,2,2,2,1,0];

nSkills = 12;
sreq = [| 0,0,0,0,0,0,0,0,0,0,0,0,
	| 0,0,1,0,0,1,0,0,1,0,0,0,
	| 0,0,0,0,0,0,1,0,0,0,0,0,
	| 0,0,0,0,0,0,0,1,0,0,1,1,
	| 0,0,0,1,0,0,0,0,0,0,0,0,
	| 0,0,0,1,0,1,0,1,0,0,0,0,
	| 0,0,0,0,2,0,0,0,1,0,0,0,
	| 0,0,0,1,0,0,0,0,0,0,0,0,
	| 0,0,0,0,1,0,0,0,0,0,1,0,
	| 0,0,0,0,0,0,1,1,0,0,0,0,
	| 0,0,0,0,1,0,0,0,0,0,0,0,
	| 0,0,0,0,0,0,0,1,0,0,0,0,
	| 0,0,1,0,0,0,0,0,0,0,0,0,
	| 0,0,0,0,0,2,1,1,0,0,0,0,
	| 0,0,0,1,0,0,0,1,0,0,0,1,
	| 0,0,0,0,0,1,0,1,1,0,0,0,
	| 0,0,0,0,0,1,0,0,0,0,0,0,
	| 0,0,1,0,0,0,0,0,1,0,0,0,
	| 0,0,1,0,0,0,0,1,2,0,0,0,
	| 0,1,0,0,1,0,0,0,0,0,0,1,
	| 0,0,0,0,0,1,0,0,0,0,0,0,
	| 0,0,0,1,0,0,0,0,0,0,0,1,
	| 0,0,0,0,0,0,0,1,0,0,0,0,
	| 0,0,0,0,0,1,0,1,1,0,0,1,
	| 0,0,1,0,1,0,0,1,0,0,0,0,
	| 0,0,1,1,0,0,0,0,0,0,0,0,
	| 0,0,1,1,0,0,0,1,0,0,0,0,
	| 0,0,0,1,1,0,0,0,0,0,0,1,
	| 0,0,1,0,0,1,0,0,1,0,0,0,
	| 0,0,0,0,0,0,0,1,0,0,0,0,
	| 0,0,0,0,0,0,0,0,0,0,1,0,
	| 0,0,1,0,0,1,1,0,0,0,0,0,
	| 0,0,0,0,0,2,1,0,0,0,0,1,
	| 0,0,0,0,0,2,0,0,0,0,1,1,
	| 1,0,0,0,0,1,0,0,0,0,0,0,
	| 0,0,0,0,0,0,0,0,1,0,0,1,
	| 0,0,1,0,0,1,1,0,0,0,0,0,
	| 0,0,1,0,0,0,0,1,0,0,0,0,
	| 0,0,0,0,0,2,0,1,0,0,0,0,
	| 0,0,0,0,0,0,0,0,0,0,1,0,
	| 0,0,0,0,0,0,1,0,0,0,0,0,
	| 0,0,1,0,1,0,0,0,0,0,0,0,
	| 0,0,0,0,0,2,0,0,0,0,0,0,
	| 0,0,0,1,0,0,0,1,1,0,0,0,
	| 0,0,1,0,0,1,0,0,0,0,2,0,
	| 0,0,0,1,1,0,0,0,1,0,0,0,
	| 0,0,0,0,0,2,1,0,0,0,0,0,
	| 0,0,0,1,0,0,0,0,1,0,0,0,
	| 0,0,0,1,0,0,0,0,1,0,0,1,
	| 0,0,0,0,0,2,0,0,1,0,0,0,
	| 0,0,0,0,1,0,0,0,0,1,0,0,
	| 0,0,0,0,0,0,0,0,1,0,0,0,
	| 0,0,0,0,2,0,0,0,0,0,0,1,
	| 0,0,1,0,0,0,0,0,0,0,0,0,
	| 0,0,0,0,0,3,0,1,0,0,0,0,
	| 0,0,0,1,0,0,0,1,0,0,0,1,
	| 0,0,0,0,0,1,0,0,0,0,0,0,
	| 0,0,1,1,0,0,1,0,0,0,0,0,
	| 0,0,0,0,1,1,0,1,1,0,0,0,
	| 0,0,0,0,0,0,0,1,0,0,1,0,
	| 0,0,0,0,1,0,0,0,1,0,1,0,
	| 0,0,0,0,0,0,1,0,0,0,0,0,
	| 0,0,1,0,0,1,0,0,0,0,0,1,
	| 0,0,0,1,0,0,0,1,2,0,0,0,
	| 0,0,0,0,0,0,0,0,2,0,1,0,
	| 0,0,0,1,0,0,0,0,1,0,0,0,
	| 0,0,1,0,1,0,0,1,0,0,0,1,
	| 0,0,0,0,1,0,0,1,1,0,0,1,
	| 0,0,0,1,0,1,0,0,0,0,0,0,
	| 0,0,0,1,1,0,1,0,1,0,0,0,
	| 0,0,0,1,0,0,0,1,1,0,0,0,
	| 0,0,0,0,0,1,0,0,0,0,0,0,
	| 0,0,0,0,1,0,0,0,2,0,0,0,
	| 0,0,0,0,0,0,0,1,1,1,1,0,
	| 0,0,0,0,1,0,2,0,1,0,0,0,
	| 0,0,1,0,0,0,0,0,1,0,0,0,
	| 0,0,1,1,1,0,0,0,0,0,0,0,
	| 0,0,1,0,1,0,0,1,0,0,0,1,
	| 0,0,0,0,0,1,2,0,1,0,0,0,
	| 0,0,0,0,1,0,0,0,1,0,0,0,
	| 0,0,0,0,1,1,0,2,0,0,0,0,
	| 0,0,0,0,0,0,0,0,3,0,0,1,
	| 0,0,1,1,0,0,1,0,0,0,0,1,
	| 0,0,0,0,0,1,0,0,1,0,1,0,
	| 0,0,0,0,0,0,0,0,1,0,0,0,
	| 0,0,0,0,0,2,1,1,0,0,0,0,
	| 0,0,1,0,0,0,1,1,1,0,0,0,
	| 0,0,0,0,0,2,2,0,0,0,0,0,
	| 0,0,0,0,0,0,0,0,0,0,1,0,
	| 0,0,2,0,1,0,0,1,0,0,0,0,
	| 0,0,0,0,1,1,0,0,1,0,0,0,
	| 0,0,0,0,0,0,0,0,0,0,0,0, |];

% SumOfsreq = 236;

nResources = 14;
mastery = [| false,false,false,false,false,true,false,false,false,false,false,false,
	| false,false,false,false,false,false,true,true,true,false,false,false,
	| false,false,false,true,true,true,false,false,false,false,false,false,
	| false,false,false,false,false,true,true,true,true,false,true,true,
	| false,false,true,false,false,false,true,true,true,false,false,true,
	| false,false,false,false,false,false,false,false,false,false,false,true,
	| false,false,false,false,false,false,true,true,true,false,false,false,
	| false,false,false,false,false,false,false,false,true,false,false,false,
	| false,false,true,false,false,false,false,false,false,false,false,false,
	| false,false,false,true,true,true,false,false,false,false,false,false,
	| false,false,false,false,true,true,false,false,false,true,true,true,
	| true,true,true,true,true,true,false,false,true,false,false,false,
	| false,false,true,true,true,true,false,false,false,false,false,false,
	| false,false,false,false,false,false,false,true,true,false,false,false, |];

nPrecs = 194;
pred = [1,1,1,2,2,3,3,3,4,4,4,5,5,5,6,6,6,7,7,7,8,8,8,9,9,9,10,10,10,11,11,11,12,12,12,13,13,13,14,14,14,15,15,16,16,16,17,17,17,18,18,18,19,19,19,20,20,20,21,21,21,22,22,23,23,23,24,24,24,25,25,25,26,26,27,28,28,28,29,29,29,30,31,32,32,32,33,33,33,34,34,34,35,36,36,36,37,37,37,38,38,38,39,39,39,40,40,40,41,41,41,42,42,42,43,43,43,44,44,44,45,45,45,46,46,47,47,47,48,49,49,49,50,51,51,51,52,52,52,53,53,53,54,54,54,55,56,56,57,57,58,58,59,59,59,60,61,61,62,63,64,65,66,67,68,68,68,69,70,71,72,73,74,75,75,75,76,77,78,79,79,80,80,81,82,83,84,85,86,87,88,89,90,91];
succ = [2,3,4,7,56,21,5,42,11,15,8,9,6,16,13,14,22,9,17,25,25,12,32,10,23,26,27,20,54,73,45,40,19,60,31,36,38,24,59,37,64,60,23,18,51,75,19,43,30,20,29,47,81,44,29,41,49,31,43,76,39,46,48,73,90,28,70,55,64,57,53,39,77,30,33,41,66,35,66,67,72,35,52,49,68,47,34,85,46,67,36,63,86,73,74,61,50,91,48,68,54,40,44,79,64,49,78,56,57,50,46,43,45,56,57,50,71,68,61,62,65,69,86,65,81,52,53,54,69,60,53,55,74,61,71,55,58,63,90,58,70,87,65,67,87,59,59,62,70,79,84,71,66,84,63,79,83,69,80,76,72,88,76,74,75,85,72,78,83,88,80,82,77,82,77,78,91,89,80,81,85,89,87,82,83,84,86,89,88,90,91,92,92,92];

nUnrels = 2378;
unpred = [2,2,2,2,2,2,2,2,2,2,2,2,2,2,2,2,2,2,2,2,2,2,2,2,3,3,3,3,3,3,3,3,3,3,4,4,4,4,4,4,4,4,4,4,4,4,4,4,4,4,4,4,4,4,4,4,4,4,4,4,5,5,5,5,5,5,5,5,5,5,5,5,5,5,5,6,6,6,6,6,6,6,6,6,6,6,6,6,6,6,6,6,6,6,6,6,6,6,6,6,6,6,6,6,6,6,6,6,6,6,7,7,7,7,7,7,7,7,7,7,7,7,7,7,7,7,7,7,7,7,7,8,8,8,8,8,8,8,8,8,8,8,8,8,8,8,8,8,8,8,8,8,8,8,8,8,8,8,8,8,8,8,8,8,8,8,9,9,9,9,9,9,9,9,9,9,9,9,9,9,9,9,9,9,9,9,9,9,9,9,9,9,9,9,9,9,9,9,10,10,10,10,10,10,10,10,10,10,10,10,10,10,10,10,10,10,10,10,10,10,10,10,10,10,10,10,10,10,10,10,10,10,10,10,10,11,11,11,11,11,11,11,11,11,11,11,11,11,11,11,11,11,11,11,11,11,11,11,11,11,11,11,11,11,11,11,11,11,11,11,11,11,11,11,11,11,11,11,11,11,11,11,11,12,12,12,12,12,12,12,12,12,12,12,12,12,12,12,12,12,12,12,12,12,12,12,12,12,12,12,12,12,12,12,12,12,12,12,12,12,12,12,12,12,12,12,12,12,13,13,13,13,13,13,13,13,13,13,13,13,13,13,13,13,13,13,13,13,13,13,13,13,13,13,13,13,13,13,13,13,13,13,13,14,14,14,14,14,14,14,14,14,14,14,14,14,14,14,14,14,14,14,14,14,14,14,14,14,14,14,14,14,14,14,14,14,14,14,14,14,14,14,14,14,14,14,14,14,14,14,14,14,14,14,14,14,14,14,14,15,15,15,15,15,15,15,15,15,15,15,15,15,15,15,15,15,15,15,15,15,15,15,15,15,15,15,15,15,15,15,15,15,15,15,15,15,15,15,15,15,15,15,15,15,15,15,15,15,15,16,16,16,16,16,16,16,16,16,16,16,16,16,16,16,16,16,16,16,16,16,16,16,16,16,16,16,16,16,16,17,17,17,17,17,17,17,17,17,17,17,17,17,17,17,17,17,17,17,17,17,17,17,17,17,17,17,17,17,17,17,17,17,17,17,17,17,17,17,18,18,18,18,18,18,18,18,18,18,18,18,18,18,18,18,18,18,18,18,18,18,18,18,18,18,18,18,18,18,18,18,18,18,19,19,19,19,19,19,19,19,19,19,19,19,19,19,19,19,19,19,19,19,19,19,19,19,19,19,19,19,19,19,19,19,19,19,19,19,19,19,19,19,19,19,19,19,19,19,20,20,20,20,20,20,20,20,20,20,20,20,20,20,20,20,20,20,20,20,20,20,20,20,20,20,20,20,20,20,20,20,20,20,20,20,20,20,20,21,21,21,21,21,21,21,21,21,21,21,21,21,21,21,21,21,21,21,21,21,21,21,21,21,21,21,21,21,21,21,21,21,21,21,21,21,21,21,22,22,22,22,22,22,22,22,22,22,22,22,22,22,22,22,22,22,22,22,22,22,22,22,22,22,22,22,22,22,22,22,22,22,22,22,22,22,22,22,22,22,22,22,22,22,22,22,22,22,22,22,22,23,23,23,23,23,23,23,23,23,23,23,23,23,23,23,23,23,23,23,23,23,23,23,23,23,23,23,23,23,23,23,23,23,23,23,23,23,23,23,23,23,23,23,23,24,24,24,24,24,24,24,24,24,24,24,24,24,24,24,24,24,24,24,24,24,24,24,24,24,24,24,24,24,24,24,24,24,24,24,24,24,24,24,24,24,24,24,24,24,24,24,24,24,24,25,25,25,25,25,25,25,25,25,25,25,25,25,25,25,25,25,25,25,25,25,25,25,25,25,25,25,25,25,25,25,25,25,25,25,25,25,26,26,26,26,26,26,26,26,26,26,26,26,26,26,26,26,26,26,26,26,26,26,26,26,26,26,26,26,26,26,26,26,26,26,26,26,26,26,26,26,26,26,26,26,26,26,26,26,26,26,26,26,26,26,26,26,26,26,27,27,27,27,27,27,27,27,27,27,27,27,27,27,27,27,27,27,27,27,27,27,27,27,27,27,27,27,27,27,27,27,27,27,27,27,27,27,28,28,28,28,28,28,28,28,28,28,28,28,28,28,28,28,28,28,28,28,28,28,28,28,28,28,28,28,28,28,28,28,28,28,28,28,28,28,28,28,28,28,29,29,29,29,29,29,29,29,29,29,29,29,29,29,29,29,29,29,29,29,29,29,29,29,29,29,29,29,29,29,29,29,29,29,29,29,29,29,29,29,29,29,29,29,29,29,29,29,29,29,29,30,30,30,30,30,30,30,30,30,30,30,30,30,30,30,30,30,30,30,30,30,30,30,30,30,30,30,30,30,30,30,30,30,30,30,30,30,30,30,30,30,30,30,30,30,30,30,30,30,30,30,30,30,30,30,30,30,31,31,31,31,31,31,31,31,31,31,31,31,31,31,31,31,31,31,31,31,31,31,31,31,31,31,31,31,31,31,31,31,31,31,31,31,31,31,31,31,31,31,31,31,31,31,31,31,31,31,32,32,32,32,32,32,32,32,32,32,32,32,32,32,32,32,32,32,32,32,32,32,32,32,33,33,33,33,33,33,33,33,33,33,33,33,33,33,33,33,33,33,33,33,33,33,33,33,33,33,33,33,33,33,33,33,33,34,34,34,34,34,34,34,34,34,34,34,34,34,34,34,34,34,34,34,34,34,34,34,34,34,34,34,34,34,34,34,34,34,34,34,34,34,35,35,35,35,35,35,35,35,35,35,35,35,35,35,35,35,35,35,35,35,35,35,35,35,35,35,35,35,35,35,35,35,35,35,35,35,35,35,35,35,35,35,35,35,35,35,35,35,35,35,35,35,35,36,36,36,36,36,36,36,36,36,36,36,36,36,36,36,36,36,36,36,36,36,36,36,36,36,36,36,36,36,36,36,36,36,36,36,36,36,36,36,37,37,37,37,37,37,37,37,37,37,37,37,37,37,37,37,37,37,37,37,37,37,37,37,37,37,37,37,37,37,37,37,37,37,37,37,37,37,37,37,37,37,37,38,38,38,38,38,38,38,38,38,38,38,38,38,38,38,38,38,39,39,39,39,39,39,39,39,39,39,39,39,39,39,39,39,39,39,39,39,39,39,39,39,39,39,39,39,39,40,40,40,40,40,40,40,40,40,40,40,40,40,40,40,40,40,40,40,40,40,40,40,40,41,41,41,41,41,41,41,41,41,41,41,41,41,41,41,41,41,41,41,41,41,41,41,41,41,41,41,41,41,41,41,41,41,42,42,42,42,42,42,42,42,42,42,42,42,42,42,42,42,42,42,42,43,43,43,43,43,43,43,43,43,43,43,43,43,43,43,43,43,43,43,43,43,43,43,43,43,43,43,43,43,43,43,43,44,44,44,44,44,44,44,44,44,44,44,44,44,44,44,44,44,44,44,44,44,44,44,44,44,44,44,44,45,45,45,45,45,45,45,45,45,45,45,45,45,45,45,45,45,45,45,45,45,45,45,45,45,45,45,45,45,45,45,45,45,45,45,45,46,46,46,46,46,46,46,46,46,46,46,46,46,46,46,46,46,46,46,46,46,46,46,46,46,46,46,46,46,46,46,46,46,46,46,46,46,47,47,47,47,47,47,47,47,47,47,47,47,47,47,47,47,47,47,47,47,47,47,47,47,48,48,48,48,48,48,48,48,48,48,48,48,48,48,48,48,48,48,48,48,48,48,48,48,48,48,48,48,48,48,48,48,48,48,48,48,48,49,49,49,49,49,49,49,49,49,49,49,49,49,49,49,49,49,49,49,49,50,50,50,50,50,50,50,50,50,50,50,50,50,50,50,50,50,50,50,50,50,50,50,50,50,50,50,50,50,50,50,50,50,50,50,50,50,50,51,51,51,51,51,51,51,51,51,51,51,51,51,51,51,51,51,51,51,51,51,51,52,52,52,52,52,52,52,52,52,52,52,52,52,52,52,52,52,52,52,52,52,52,52,52,52,52,52,52,52,52,53,53,53,53,53,53,53,53,53,53,53,53,53,53,53,53,53,53,53,53,53,53,53,53,53,53,53,53,54,54,54,54,54,54,54,54,54,54,54,54,54,54,54,54,54,54,54,54,54,54,54,54,54,54,54,54,55,55,55,55,55,55,55,55,55,55,55,55,55,55,55,55,55,55,55,55,55,55,55,55,55,55,55,55,56,56,56,56,56,56,56,56,56,56,56,56,56,56,56,56,56,56,56,56,56,56,57,57,57,57,57,57,57,57,57,57,57,57,57,57,57,57,57,57,57,57,57,57,57,58,58,58,58,58,58,58,58,58,58,58,58,58,58,58,58,58,58,58,58,58,58,58,58,58,58,58,58,59,59,59,59,59,59,59,59,59,59,59,59,59,59,59,59,59,59,59,59,59,59,59,59,59,60,60,60,60,60,60,60,60,60,60,60,60,60,60,60,60,60,60,60,60,60,61,61,61,61,61,61,61,61,61,61,61,61,61,61,61,61,61,61,61,62,62,62,62,62,62,62,62,62,62,62,62,62,62,62,62,62,62,62,62,62,62,62,62,62,63,63,63,63,63,63,63,63,63,63,63,63,63,63,63,63,63,63,63,63,63,63,63,63,63,63,64,64,64,64,64,64,64,64,64,64,64,64,64,64,64,64,64,64,64,64,64,64,65,65,65,65,65,65,65,65,65,65,65,65,65,65,65,65,65,65,65,65,65,65,65,65,66,66,66,66,66,66,66,66,66,66,66,66,66,66,66,66,66,66,66,66,66,66,66,67,67,67,67,67,67,67,67,67,67,67,67,67,67,67,67,67,67,67,67,67,68,68,68,68,68,68,68,68,69,69,69,69,69,69,69,69,69,69,69,69,69,69,69,69,69,70,70,70,70,70,70,70,70,70,70,70,70,70,70,70,70,71,71,71,71,71,71,71,71,71,71,71,71,71,71,71,71,71,71,72,72,72,72,72,72,72,72,72,72,72,72,72,72,72,73,73,73,73,73,73,73,73,73,73,73,73,74,74,74,74,74,74,74,74,74,74,74,74,74,74,74,75,75,75,75,76,76,76,76,76,76,76,76,76,76,76,76,76,76,77,77,77,77,77,77,77,77,77,77,77,77,77,78,78,78,78,78,78,78,78,78,79,79,79,80,80,80,80,80,80,80,80,81,81,81,81,82,82,82,82,83,83,83,83,84,84,84,84,85,85,85,85,85,86,86,86,87,87,87,88,88,89,89,90];
unsucc = [3,4,5,6,8,11,12,13,14,15,16,18,21,22,24,32,37,38,40,42,45,47,48,51,4,7,8,11,12,15,17,19,25,32,5,6,7,9,10,13,14,16,17,18,20,21,22,24,26,27,30,33,34,36,37,38,42,43,48,51,7,8,11,12,15,17,19,21,25,32,39,42,43,44,45,7,8,9,10,11,12,15,16,17,18,19,20,21,23,25,26,27,28,29,30,31,32,33,34,35,39,41,42,43,44,45,47,51,52,57,8,11,12,13,14,15,16,18,21,22,24,32,37,38,40,42,45,47,48,51,56,9,10,11,13,14,15,16,17,18,20,21,22,23,24,26,27,28,30,33,34,35,36,37,38,40,41,42,43,45,46,48,50,51,56,73,11,12,13,14,15,16,17,18,19,21,22,24,25,29,32,37,38,39,40,42,43,44,45,47,48,51,56,62,64,68,72,75,11,12,13,14,15,16,17,18,19,21,22,23,24,25,26,28,29,30,32,35,37,38,39,40,42,43,44,45,47,48,51,56,62,64,68,72,75,12,13,14,15,16,17,18,19,20,21,22,23,24,25,26,27,28,29,30,31,32,33,34,35,36,37,38,39,41,42,43,44,46,47,48,50,51,52,54,57,61,64,67,68,72,74,75,77,13,14,15,16,17,18,20,21,22,23,24,25,26,27,28,30,32,33,34,35,36,37,38,39,40,41,42,43,45,46,47,48,49,50,51,53,54,55,56,57,59,64,65,70,73,14,15,16,17,18,19,20,21,22,23,25,26,27,28,29,30,31,32,33,34,35,37,39,41,42,43,44,45,46,47,48,50,51,52,57,15,16,17,18,19,20,21,22,23,24,25,26,27,28,29,30,31,32,33,34,35,36,38,39,40,41,42,43,44,45,46,47,49,51,52,53,54,55,56,57,58,60,61,62,65,67,68,70,71,73,75,79,81,82,83,85,16,17,18,19,20,21,22,24,25,26,27,29,30,31,32,33,34,36,37,38,39,40,42,43,44,45,47,48,49,51,52,53,54,55,56,58,59,61,62,63,64,67,68,69,71,72,75,78,80,87,17,19,21,22,23,24,25,26,27,28,30,32,33,34,35,36,37,38,39,40,42,43,44,45,48,56,62,64,68,73,18,20,21,22,23,24,25,26,27,28,31,32,33,34,36,37,38,39,40,41,42,45,46,47,48,49,51,52,53,54,55,56,58,59,60,63,64,65,73,19,21,22,23,24,25,26,27,28,30,32,33,34,35,36,37,38,39,40,42,43,44,45,48,51,56,61,62,64,68,69,73,75,78,20,21,22,23,24,25,26,27,28,30,31,32,33,34,35,36,37,38,39,40,41,42,43,45,46,47,48,49,50,51,52,53,54,55,56,57,58,59,60,63,64,65,70,71,73,79,21,22,23,24,25,26,27,28,29,30,32,33,34,35,36,37,38,39,40,42,43,44,45,47,48,51,54,56,61,62,64,67,68,69,72,73,75,78,80,22,23,24,25,26,27,28,29,30,31,32,33,34,35,36,37,38,40,41,42,45,46,47,48,49,51,52,53,54,55,56,58,59,60,63,65,66,67,73,23,24,25,26,27,28,29,30,31,32,33,34,35,36,37,38,39,40,41,42,43,44,45,47,49,50,51,52,53,54,55,56,57,58,59,60,61,62,63,64,66,67,68,70,71,72,73,74,75,76,77,79,85,24,25,26,27,29,30,31,32,33,34,36,37,38,39,40,42,43,44,45,47,48,49,51,52,53,54,55,56,58,59,60,61,62,63,64,67,68,69,71,72,75,78,80,87,25,26,27,28,29,30,31,32,33,34,35,36,37,38,39,40,41,42,43,44,45,46,47,48,49,50,51,52,53,54,56,57,58,60,61,62,65,67,68,69,71,73,74,75,77,78,79,81,82,85,26,27,28,29,30,31,32,33,34,35,36,37,38,40,41,42,43,45,46,47,48,49,50,51,52,54,55,56,59,60,63,65,66,67,73,74,76,27,28,29,31,32,33,34,36,37,38,39,40,41,42,43,44,45,46,47,48,49,50,51,52,53,54,55,56,57,58,59,60,61,62,63,64,65,66,67,68,69,70,71,72,73,74,75,76,78,79,80,81,82,83,84,85,87,90,28,29,30,31,32,35,37,38,39,40,41,42,43,44,45,47,48,49,50,51,52,53,54,55,56,57,58,59,60,62,64,66,68,70,71,72,75,79,29,30,31,32,33,34,36,37,38,39,40,42,43,44,45,47,48,49,51,52,53,54,55,56,58,59,60,61,62,63,64,67,68,69,71,72,73,75,78,80,87,90,30,31,32,33,34,35,36,37,38,39,40,41,42,43,44,45,46,47,48,49,50,51,52,53,54,55,56,57,58,59,60,61,62,63,64,65,68,69,70,71,73,75,78,79,81,82,83,84,85,86,88,31,32,33,34,36,37,38,39,40,41,42,43,44,45,46,47,48,49,50,51,52,53,54,55,56,57,58,59,60,61,62,63,64,65,66,67,68,69,70,71,72,73,74,75,76,77,78,79,80,81,82,83,84,85,87,89,90,32,33,34,35,36,37,38,39,40,41,42,43,44,45,46,47,48,49,50,51,53,54,55,56,57,59,60,61,62,64,65,66,67,68,69,70,72,73,74,75,77,78,79,80,81,82,83,85,87,89,33,34,35,36,37,38,39,40,41,42,43,44,45,46,48,50,51,56,57,61,62,64,69,73,35,37,38,39,40,41,42,43,44,45,47,48,49,50,51,52,53,54,55,56,57,58,59,60,62,64,66,68,70,71,72,75,79,35,37,38,39,40,41,42,43,44,45,46,47,48,49,50,51,52,53,54,55,56,57,58,59,60,62,64,65,66,68,70,71,72,75,79,81,85,36,37,38,39,40,41,42,43,44,45,46,47,48,49,50,51,52,53,54,55,56,57,58,59,60,61,62,63,64,65,66,67,68,69,70,71,72,73,74,75,76,77,78,79,80,81,82,83,84,85,87,89,90,37,38,39,40,41,42,43,44,45,46,47,48,49,50,51,52,53,54,55,56,57,58,59,60,62,63,64,65,66,67,68,70,71,72,75,76,79,81,85,38,39,40,41,42,43,44,45,46,47,49,51,52,53,54,55,56,57,58,59,60,61,62,63,64,65,66,67,68,70,71,72,73,75,76,79,81,82,83,84,85,86,88,39,41,42,43,44,45,46,47,48,50,51,52,57,61,64,69,73,40,41,42,43,45,46,47,48,49,50,51,52,53,54,55,56,57,58,59,60,63,65,66,67,70,71,73,74,76,41,42,43,44,45,46,47,48,50,51,52,54,57,61,64,65,67,68,69,72,73,74,75,77,42,43,44,45,47,48,49,51,52,53,54,55,56,58,59,60,61,62,63,64,66,67,68,69,71,72,73,75,76,78,80,87,90,44,46,47,48,49,51,52,53,54,55,58,60,61,64,67,68,72,73,75,44,45,46,47,48,49,51,52,53,54,55,56,58,59,60,61,62,63,64,65,66,67,68,69,72,73,75,76,78,80,87,90,45,46,47,48,49,50,51,52,53,54,55,56,57,58,59,60,63,64,65,66,67,70,71,73,74,76,79,81,46,47,48,49,50,51,52,53,54,55,56,57,58,59,60,61,62,63,64,66,67,68,70,71,72,73,74,75,76,77,79,81,82,83,84,85,47,48,49,50,51,52,53,54,55,56,57,58,59,60,61,62,63,64,66,67,68,69,70,71,72,73,74,75,76,77,78,79,80,85,87,89,90,48,49,50,51,55,56,57,59,60,61,62,64,66,68,69,72,73,75,78,79,80,81,82,85,49,50,51,52,53,54,55,56,57,58,59,60,61,62,63,64,65,66,67,68,70,71,72,73,74,75,76,77,79,81,82,83,84,85,86,88,91,50,51,52,54,56,57,61,62,64,65,67,68,69,72,73,74,75,77,78,80,51,52,53,54,55,56,57,58,59,60,61,62,63,64,65,66,67,68,69,70,71,72,73,75,76,78,79,80,81,82,83,84,85,86,87,88,90,91,52,53,54,56,57,58,60,62,64,65,67,68,70,72,73,74,75,77,79,81,82,85,53,54,55,56,57,59,60,61,62,64,65,66,67,68,69,70,72,73,74,75,77,78,79,80,81,82,83,85,87,89,54,55,56,57,59,60,61,62,63,64,65,66,67,68,69,72,73,74,75,76,77,78,79,80,81,82,85,89,55,56,57,58,59,60,61,62,63,64,66,68,69,70,71,72,73,75,76,78,79,80,81,82,83,84,85,86,56,57,58,60,61,62,64,65,67,68,69,70,71,72,73,74,75,77,78,79,80,81,82,83,85,87,89,90,57,58,60,61,64,65,67,68,69,70,71,72,73,74,75,77,78,79,81,82,83,85,58,59,60,61,62,63,64,65,66,67,68,69,71,72,73,74,75,76,77,78,80,87,90,59,60,61,62,63,64,65,66,67,68,69,70,72,73,74,75,76,77,78,79,80,81,82,83,85,87,89,90,60,61,62,64,65,67,68,69,70,71,72,73,74,75,77,78,79,80,81,82,83,85,87,89,90,61,62,63,64,65,66,67,68,69,70,71,72,73,74,75,76,77,78,80,87,90,62,63,64,65,66,67,68,70,71,72,73,74,75,76,77,79,81,82,85,63,64,65,66,67,68,69,70,71,72,73,74,75,76,77,78,79,81,82,83,84,85,86,88,91,64,65,66,67,68,69,70,71,72,73,74,75,77,78,79,80,81,82,83,84,85,86,87,88,89,90,65,66,67,68,69,70,71,73,74,75,76,77,78,79,81,82,83,84,85,86,88,91,66,67,68,69,70,71,72,73,74,75,76,77,78,79,80,81,82,83,84,85,86,87,89,90,67,68,69,70,71,72,73,74,75,77,78,79,80,81,82,83,84,85,86,87,88,89,90,68,69,70,71,72,73,75,76,78,79,80,81,82,83,84,85,86,87,88,90,91,69,70,71,73,74,76,79,81,70,71,72,73,74,75,76,77,79,81,82,83,84,85,86,88,91,71,72,73,74,75,76,77,78,79,80,81,82,85,87,89,90,72,73,74,75,76,77,78,79,80,81,82,83,84,85,86,87,89,90,73,74,75,76,77,78,79,81,82,83,84,85,86,88,91,74,75,76,77,78,79,80,81,85,87,89,90,75,76,78,79,80,81,82,83,84,85,86,87,88,90,91,76,79,81,85,77,78,79,80,81,82,83,84,85,86,87,88,89,90,78,79,80,81,82,83,84,85,86,87,88,90,91,79,81,82,83,84,85,86,88,91,80,87,90,81,82,83,84,85,86,88,91,85,87,89,90,85,87,89,90,85,87,89,90,85,87,89,90,86,87,88,90,91,87,89,90,88,89,91,89,90,90,91,91];

USEFUL_RES = [{},
	{1,2,3,4,5,7,8,9,10,11,12,13,14},
	{2,4,5,7},
	{2,4,5,6,7,11,14},
	{3,10,12,13},
	{1,2,3,4,5,7,10,11,12,13,14},
	{2,3,4,5,7,8,10,11,12,13,14},
	{3,10,12,13},
	{3,4,10,11,12,13},
	{2,4,5,7,14},
	{3,10,11,12,13},
	{2,4,5,7,14},
	{5,9,12,13},
	{1,2,3,4,5,7,10,11,12,13,14},
	{2,3,4,5,6,7,10,11,12,13,14},
	{1,2,3,4,5,7,8,10,11,12,13,14},
	{1,3,4,10,11,12,13},
	{2,4,5,7,8,9,12,13,14},
	{2,4,5,7,8,9,12,13,14},
	{3,4,5,6,10,11,12,13},
	{1,3,4,10,11,12,13},
	{3,4,5,6,10,11,12,13},
	{2,4,5,7,14},
	{1,2,3,4,5,6,7,8,10,11,12,13,14},
	{2,3,4,5,7,9,10,11,12,13,14},
	{3,5,9,10,12,13},
	{2,3,4,5,7,9,10,12,13,14},
	{3,4,5,6,10,11,12,13},
	{1,2,3,4,5,7,8,9,10,11,12,13,14},
	{2,4,5,7,14},
	{4,11},
	{1,2,3,4,5,7,9,10,11,12,13},
	{1,2,3,4,5,6,7,10,11,12,13},
	{1,3,4,5,6,10,11,12,13},
	{1,3,4,10,11,12,13},
	{2,4,5,6,7,8,11,12,14},
	{1,2,3,4,5,7,9,10,11,12,13},
	{2,4,5,7,9,12,13,14},
	{1,2,3,4,5,7,10,11,12,13,14},
	{4,11},
	{2,4,5,7},
	{3,5,9,10,11,12,13},
	{1,3,4,10,11,12,13},
	{2,3,4,5,7,8,10,12,13,14},
	{1,3,4,5,9,10,11,12,13},
	{2,3,4,5,7,8,10,11,12,13,14},
	{1,2,3,4,5,7,10,11,12,13},
	{2,3,4,5,7,8,10,12,13,14},
	{2,3,4,5,6,7,8,10,11,12,13,14},
	{1,2,3,4,5,7,8,10,11,12,13,14},
	{3,10,11,12,13},
	{2,4,5,7,8,12,14},
	{3,4,5,6,10,11,12,13},
	{5,9,12,13},
	{1,2,3,4,5,7,10,11,12,13,14},
	{2,3,4,5,6,7,10,11,12,13,14},
	{1,3,4,10,11,12,13},
	{2,3,4,5,7,9,10,12,13},
	{1,2,3,4,5,7,8,10,11,12,13,14},
	{2,4,5,7,11,14},
	{2,3,4,5,7,8,10,11,12,13,14},
	{2,4,5,7},
	{1,3,4,5,6,9,10,11,12,13},
	{2,3,4,5,7,8,10,12,13,14},
	{2,4,5,7,8,11,12,14},
	{2,3,4,5,7,8,10,12,13,14},
	{2,3,4,5,6,7,9,10,11,12,13,14},
	{2,3,4,5,6,7,8,10,11,12,13,14},
	{1,3,4,10,11,12,13},
	{2,3,4,5,7,8,10,11,12,13,14},
	{2,3,4,5,7,8,10,12,13,14},
	{1,3,4,10,11,12,13},
	{2,3,4,5,7,8,10,11,12,13,14},
	{2,4,5,7,8,11,12,14},
	{2,3,4,5,7,8,10,11,12,13,14},
	{2,4,5,7,8,9,12,13,14},
	{3,5,9,10,11,12,13},
	{2,3,4,5,6,7,9,10,11,12,13,14},
	{1,2,3,4,5,7,8,10,11,12,13,14},
	{2,3,4,5,7,8,10,11,12,13,14},
	{1,2,3,4,5,7,10,11,12,13,14},
	{2,4,5,6,7,8,11,12,14},
	{2,3,4,5,6,7,9,10,11,12,13},
	{1,2,3,4,5,7,8,10,11,12,13,14},
	{2,4,5,7,8,12,14},
	{1,2,3,4,5,7,10,11,12,13,14},
	{2,4,5,7,8,9,12,13,14},
	{1,2,3,4,5,7,10,11,12,13},
	{4,11},
	{2,3,4,5,7,9,10,11,12,13,14},
	{1,2,3,4,5,7,8,10,11,12,13,14},
	{}];

POTENTIAL_ACT = [{2,6,14,16,17,21,24,29,32,33,34,35,37,39,43,45,47,50,55,57,59,63,69,72,79,81,84,86,88,91},
	{2,3,4,6,7,10,12,14,15,16,18,19,23,24,25,27,29,30,32,33,36,37,38,39,41,44,46,47,48,49,50,52,55,56,58,59,60,61,62,64,65,66,67,68,70,71,73,74,75,76,78,79,80,81,82,83,84,85,86,87,88,90,91},
	{2,5,6,7,8,9,11,14,15,16,17,20,21,22,24,25,26,27,28,29,32,33,34,35,37,39,42,43,44,45,46,47,48,49,50,51,53,55,56,57,58,59,61,63,64,66,67,68,69,70,71,72,73,75,77,78,79,80,81,83,84,86,88,90,91},
	{2,3,4,6,7,9,10,12,14,15,16,17,18,19,20,21,22,23,24,25,27,28,29,30,31,32,33,34,35,36,37,38,39,40,41,43,44,45,46,47,48,49,50,52,53,55,56,57,58,59,60,61,62,63,64,65,66,67,68,69,70,71,72,73,74,75,76,78,79,80,81,82,83,84,85,86,87,88,89,90,91},
	{2,3,4,6,7,10,12,13,14,15,16,18,19,20,22,23,24,25,26,27,28,29,30,32,33,34,36,37,38,39,41,42,44,45,46,47,48,49,50,52,53,54,55,56,58,59,60,61,62,63,64,65,66,67,68,70,71,73,74,75,76,77,78,79,80,81,82,83,84,85,86,87,88,90,91},
	{4,15,20,22,24,28,33,34,36,49,53,56,63,67,68,78,82,83},
	{2,3,4,6,7,10,12,14,15,16,18,19,23,24,25,27,29,30,32,33,36,37,38,39,41,44,46,47,48,49,50,52,55,56,58,59,60,61,62,64,65,66,67,68,70,71,73,74,75,76,78,79,80,81,82,83,84,85,86,87,88,90,91},
	{2,7,16,18,19,24,29,36,44,46,48,49,50,52,59,61,64,65,66,68,70,71,73,74,75,76,79,80,82,84,85,87,91},
	{2,13,18,19,25,26,27,29,32,37,38,42,45,54,58,63,67,76,77,78,83,87,90},
	{2,5,6,7,8,9,11,14,15,16,17,20,21,22,24,25,26,27,28,29,32,33,34,35,37,39,42,43,44,45,46,47,48,49,50,51,53,55,56,57,58,59,61,63,64,66,67,68,69,70,71,72,73,75,77,78,79,80,81,83,84,86,88,90,91},
	{2,4,6,7,9,11,14,15,16,17,20,21,22,24,25,28,29,31,32,33,34,35,36,37,39,40,42,43,45,46,47,49,50,51,53,55,56,57,59,60,61,63,65,67,68,69,70,72,73,74,75,77,78,79,80,81,82,83,84,86,88,89,90,91},
	{2,5,6,7,8,9,11,13,14,15,16,17,18,19,20,21,22,24,25,26,27,28,29,32,33,34,35,36,37,38,39,42,43,44,45,46,47,48,49,50,51,52,53,54,55,56,57,58,59,61,63,64,65,66,67,68,69,70,71,72,73,74,75,76,77,78,79,80,81,82,83,84,85,86,87,88,90,91},
	{2,5,6,7,8,9,11,13,14,15,16,17,18,19,20,21,22,24,25,26,27,28,29,32,33,34,35,37,38,39,42,43,44,45,46,47,48,49,50,51,53,54,55,56,57,58,59,61,63,64,66,67,68,69,70,71,72,73,75,76,77,78,79,80,81,83,84,86,87,88,90,91},
	{2,4,6,7,10,12,14,15,16,18,19,23,24,25,27,29,30,36,38,39,44,46,48,49,50,52,55,56,59,60,61,64,65,66,67,68,70,71,73,74,75,76,78,79,80,81,82,84,85,86,87,90,91}];
